(set-logic HORN)
(declare-fun rec_array_copy@summary ((Array Int Int) Int (Array Int Int) Int Int (Array Int Int) ) Bool)
(declare-fun rec_array_copy@pre ((Array Int Int) Int (Array Int Int) Int Int ) Bool)
(assert (forall ((.array1@0 (Array Int Int))(array2@0 (Array Int Int))(.array1!size@0 Int)(.array2!size@0 Int)(j@0 Int)(array1@0 (Array Int Int))(array1@1 (Array Int Int))) (=> (and (rec_array_copy@pre |array1@0| |.array1!size@0| |array2@0| |.array2!size@0| |j@0|) (= |.array1@0| |array1@0|) (> |j@0| 0) (= |array1@1| (store |array1@0| (- |j@0| 1) (select |array2@0| (- |j@0| 1))))) (rec_array_copy@pre |array1@1| |.array1!size@0| |array2@0| |.array2!size@0| (- |j@0| 1)))))
(assert (forall ((N@0 Int)(array1@0 (Array Int Int))(array2@0 (Array Int Int))) (=> (> |N@0| 0) (rec_array_copy@pre |array1@0| |N@0| |array2@0| |N@0| |N@0|))))
(assert (forall ((N@0 Int)(array1@0 (Array Int Int))(array2@0 (Array Int Int))(array1@1 (Array Int Int))) (=> (and (rec_array_copy@summary |array1@0| |N@0| |array2@0| |N@0| |N@0| |array1@1|) (rec_array_copy@pre |array1@0| |N@0| |array2@0| |N@0| |N@0|) (> |N@0| 0) (not (forall ((k@0 Int)) (=> (and (<= 0 |k@0|) (< |k@0| |N@0|)) (= (select |array1@1| |k@0|) (select |array2@0| |k@0|)))))) false)))
(assert (forall ((.array1@0 (Array Int Int))(.array1!size@0 Int)(array2@0 (Array Int Int))(.array2!size@0 Int)(j@0 Int)(array1@0 (Array Int Int))(array1@2 (Array Int Int))(array1@1 (Array Int Int))) (=> (and (rec_array_copy@summary |array1@2| |.array1!size@0| |array2@0| |.array2!size@0| (- |j@0| 1) |array1@0|) (rec_array_copy@pre |array1@2| |.array1!size@0| |array2@0| |.array2!size@0| (- |j@0| 1)) (rec_array_copy@pre |array1@1| |.array1!size@0| |array2@0| |.array2!size@0| |j@0|) (= |.array1@0| |array1@1|) (> |j@0| 0) (= |array1@2| (store |array1@1| (- |j@0| 1) (select |array2@0| (- |j@0| 1))))) (rec_array_copy@summary |.array1@0| |.array1!size@0| |array2@0| |.array2!size@0| |j@0| |array1@0|))))
(assert (forall ((.array1@0 (Array Int Int))(.array1!size@0 Int)(array2@0 (Array Int Int))(.array2!size@0 Int)(j@0 Int)(array1@0 (Array Int Int))) (=> (and (rec_array_copy@pre |array1@0| |.array1!size@0| |array2@0| |.array2!size@0| |j@0|) (= |.array1@0| |array1@0|) (not (> |j@0| 0))) (rec_array_copy@summary |.array1@0| |.array1!size@0| |array2@0| |.array2!size@0| |j@0| |array1@0|))))
(check-sat)